<?xml version = "1.0" standalone="yes"?>
<!-- This file has been generated by DOcplex version 2.23.222  -->
<CPLEXSolution version="1.0">
 <header
   problemName="CVRP"
   objectiveValue="9816.45"
  />
 <variables>
  <variable name="x_0_2" index="1" value="1.00000"/>
  <variable name="x_0_3" index="2" value="1.00000"/>
  <variable name="x_0_4" index="3" value="1.00000"/>
  <variable name="x_0_6" index="5" value="1.00000"/>
  <variable name="x_0_8" index="7" value="1.00000"/>
  <variable name="x_0_9" index="8" value="1.00000"/>
  <variable name="x_0_10" index="9" value="1.00000"/>
  <variable name="x_0_11" index="10" value="1.00000"/>
  <variable name="x_0_14" index="13" value="1.00000"/>
  <variable name="x_0_16" index="15" value="1.00000"/>
  <variable name="x_0_17" index="16" value="1.00000"/>
  <variable name="x_1_7" index="23" value="1.00000"/>
  <variable name="x_2_12" index="45" value="1.00000"/>
  <variable name="x_3_0" index="51" value="1.00000"/>
  <variable name="x_4_0" index="68" value="1.00000"/>
  <variable name="x_5_0" index="85" value="1.00000"/>
  <variable name="x_6_0" index="102" value="1.00000"/>
  <variable name="x_7_0" index="119" value="1.00000"/>
  <variable name="x_8_1" index="137" value="1.00000"/>
  <variable name="x_9_0" index="153" value="1.00000"/>
  <variable name="x_10_15" index="184" value="1.00000"/>
  <variable name="x_11_5" index="192" value="1.00000"/>
  <variable name="x_12_13" index="216" value="1.00000"/>
  <variable name="x_13_0" index="221" value="1.00000"/>
  <variable name="x_14_0" index="238" value="1.00000"/>
  <variable name="x_15_0" index="255" value="1.00000"/>
  <variable name="x_16_0" index="272" value="1.00000"/>
  <variable name="x_17_0" index="289" value="1.00000"/>
  <variable name="u_1" index="306" value="60.00000"/>
  <variable name="u_2" index="307" value="31.00000"/>
  <variable name="u_3" index="308" value="61.00000"/>
  <variable name="u_4" index="309" value="64.00000"/>
  <variable name="u_5" index="310" value="53.00000"/>
  <variable name="u_6" index="311" value="69.00000"/>
  <variable name="u_7" index="312" value="66.00000"/>
  <variable name="u_8" index="313" value="49.00000"/>
  <variable name="u_9" index="314" value="56.00000"/>
  <variable name="u_10" index="315" value="32.00000"/>
  <variable name="u_11" index="316" value="17.00000"/>
  <variable name="u_12" index="317" value="32.00000"/>
  <variable name="u_13" index="318" value="63.00000"/>
  <variable name="u_14" index="319" value="50.00000"/>
  <variable name="u_15" index="320" value="62.00000"/>
  <variable name="u_16" index="321" value="43.00000"/>
  <variable name="u_17" index="322" value="46.00000"/>
 </variables>
</CPLEXSolution>
